Geographic Exponential Decay
20 12 74 309 136 57 312 265 43 169 173 239 38 195 50 127 164 121 108 145 174
p edge 320 602
e 0 27 5.0
e 0 295 4.0
e 1 263 1.0
e 2 4 1.0
e 2 0 4.0
e 3 223 1.0
e 5 162 1.0
e 6 171 2.0
e 6 87 4.0
e 7 124 6.0
e 7 152 5.0
e 8 214 9.0
e 8 307 9.0
e 8 47 8.0
e 9 171 2.0
e 10 171 1.0
e 10 258 2.0
e 11 134 1.0
e 12 53 98.0
e 12 142 48.0
e 12 287 65.0
e 12 33 56.0
e 12 248 25.0
e 12 183 96.0
e 12 141 23.0
e 12 241 26.0
e 12 108 27.0
e 12 45 9.0
e 12 139 10.0
e 12 298 57.0
e 12 256 73.0
e 12 69 77.0
e 12 285 26.0
e 12 95 70.0
e 12 217 12.0
e 13 21 1.0
e 13 306 3.0
e 13 84 6.0
e 14 205 1.0
e 14 113 1.0
e 15 98 1.0
e 16 253 4.0
e 17 18 1.0
e 19 138 5.0
e 19 120 4.0
e 20 88 1.0
e 22 104 11.0
e 22 140 24.0
e 22 120 14.0
e 22 297 24.0
e 22 282 22.0
e 23 96 1.0
e 24 235 2.0
e 24 154 3.0
e 25 253 3.0
e 26 200 2.0
e 28 21 1.0
e 29 77 6.0
e 29 104 10.0
e 29 10 6.0
e 30 247 19.0
e 30 156 9.0
e 30 149 13.0
e 30 299 9.0
e 30 300 9.0
e 31 240 5.0
e 32 255 1.0
e 33 304 3.0
e 34 37 1.0
e 35 53 1.0
e 36 239 7.0
e 36 38 59.0
e 38 148 65.0
e 38 175 20.0
e 38 117 68.0
e 38 147 50.0
e 38 65 44.0
e 38 116 52.0
e 38 162 27.0
e 38 51 1.0
e 38 165 77.0
e 38 309 51.0
e 38 205 80.0
e 38 119 40.0
e 38 211 98.0
e 38 257 26.0
e 38 306 67.0
e 38 194 68.0
e 39 281 4.0
e 40 258 6.0
e 40 11 10.0
e 40 3 21.0
e 40 132 7.0
e 40 170 5.0
e 41 221 14.0
e 41 143 29.0
e 41 288 26.0
e 41 222 32.0
e 41 58 24.0
e 41 53 26.0
e 41 43 23.0
e 41 44 12.0
e 41 166 5.0
e 42 23 1.0
e 43 124 67.0
e 43 28 52.0
e 43 26 63.0
e 43 306 68.0
e 43 33 54.0
e 43 83 30.0
e 43 258 66.0
e 43 90 72.0
e 43 176 83.0
e 43 216 5.0
e 43 31 3.0
e 43 215 78.0
e 43 274 11.0
e 43 54 69.0
e 43 120 97.0
e 43 257 6.0
e 44 150 7.0
e 44 248 1.0
e 46 262 5.0
e 48 148 2.0
e 49 63 6.0
e 49 112 5.0
e 50 66 58.0
e 50 137 29.0
e 50 240 83.0
e 50 236 35.0
e 50 53 50.0
e 50 184 92.0
e 50 214 79.0
e 50 227 97.0
e 50 204 87.0
e 50 138 86.0
e 50 113 97.0
e 50 112 11.0
e 50 74 97.0
e 50 129 47.0
e 50 223 9.0
e 50 49 93.0
e 50 18 87.0
e 51 285 6.0
e 52 169 81.0
e 54 30 12.0
e 54 80 24.0
e 54 202 5.0
e 54 39 14.0
e 55 247 1.0
e 56 116 1.0
e 56 159 5.0
e 57 247 52.0
e 57 33 98.0
e 57 276 87.0
e 57 260 22.0
e 57 311 7.0
e 57 193 32.0
e 57 189 68.0
e 57 104 91.0
e 57 191 4.0
e 57 154 39.0
e 57 264 65.0
e 57 253 28.0
e 57 238 68.0
e 57 63 24.0
e 57 170 49.0
e 57 268 56.0
e 57 105 28.0
e 58 187 2.0
e 59 264 5.0
e 60 23 1.0
e 61 100 2.0
e 62 185 1.0
e 64 100 16.0
e 64 306 1.0
e 64 96 9.0
e 64 253 7.0
e 64 255 23.0
e 67 8 11.0
e 67 157 5.0
e 68 317 6.0
e 69 60 3.0
e 70 250 1.0
e 70 97 6.0
e 71 288 6.0
e 71 83 8.0
e 71 183 6.0
e 72 59 2.0
e 73 154 2.0
e 74 30 42.0
e 74 289 1.0
e 74 164 40.0
e 74 112 38.0
e 74 265 37.0
e 74 250 42.0
e 74 158 38.0
e 74 249 87.0
e 74 61 16.0
e 74 294 89.0
e 74 255 90.0
e 74 149 73.0
e 74 163 88.0
e 74 195 21.0
e 74 264 53.0
e 74 63 52.0
e 75 285 4.0
e 75 222 2.0
e 76 269 6.0
e 76 298 1.0
e 78 72 1.0
e 79 68 1.0
e 79 66 3.0
e 81 137 4.0
e 81 248 8.0
e 81 24 11.0
e 82 7 7.0
e 82 22 2.0
e 82 85 11.0
e 86 116 1.0
e 89 42 1.0
e 91 221 3.0
e 91 307 3.0
e 92 130 1.0
e 93 246 2.0
e 93 77 6.0
e 94 81 7.0
e 97 132 11.0
e 97 244 1.0
e 99 73 1.0
e 99 285 7.0
e 99 308 4.0
e 101 168 2.0
e 102 66 11.0
e 102 86 3.0
e 102 256 4.0
e 103 170 1.0
e 106 132 22.0
e 107 126 1.0
e 108 250 13.0
e 108 79 77.0
e 108 29 32.0
e 108 279 41.0
e 108 75 4.0
e 108 120 30.0
e 108 169 24.0
e 108 84 35.0
e 108 8 54.0
e 108 128 24.0
e 108 65 18.0
e 108 15 99.0
e 108 9 28.0
e 108 263 97.0
e 108 226 41.0
e 108 3 62.0
e 109 39 2.0
e 110 116 2.0
e 111 40 13.0
e 111 93 1.0
e 114 201 7.0
e 114 220 20.0
e 114 206 24.0
e 114 122 19.0
e 114 234 4.0
e 115 318 1.0
e 117 307 4.0
e 118 174 3.0
e 121 307 45.0
e 121 226 76.0
e 121 248 32.0
e 121 94 87.0
e 121 292 99.0
e 121 286 39.0
e 121 81 13.0
e 121 16 8.0
e 121 51 99.0
e 121 82 44.0
e 121 264 82.0
e 121 172 50.0
e 121 243 19.0
e 121 25 1.0
e 121 132 12.0
e 121 170 71.0
e 121 114 86.0
e 122 49 1.0
e 122 278 2.0
e 123 306 2.0
e 123 58 24.0
e 123 105 8.0
e 123 127 25.0
e 123 203 1.0
e 125 207 1.0
e 126 30 9.0
e 127 276 58.0
e 127 286 39.0
e 127 23 85.0
e 127 31 76.0
e 127 192 81.0
e 127 139 97.0
e 127 302 80.0
e 127 75 66.0
e 127 171 56.0
e 127 277 19.0
e 127 267 84.0
e 127 106 24.0
e 127 63 73.0
e 127 40 60.0
e 127 92 29.0
e 127 96 40.0
e 131 236 3.0
e 131 80 1.0
e 132 279 5.0
e 133 222 5.0
e 133 231 5.0
e 135 25 1.0
e 136 287 24.0
e 136 1 59.0
e 136 17 44.0
e 136 254 5.0
e 136 38 7.0
e 136 309 62.0
e 136 279 64.0
e 136 113 3.0
e 136 144 60.0
e 136 195 79.0
e 136 78 51.0
e 136 96 71.0
e 136 193 17.0
e 136 76 36.0
e 136 135 42.0
e 136 265 31.0
e 136 245 99.0
e 141 93 1.0
e 143 79 4.0
e 144 218 3.0
e 144 117 18.0
e 144 318 3.0
e 144 219 1.0
e 145 210 12.0
e 145 97 38.0
e 145 123 45.0
e 145 314 61.0
e 145 173 3.0
e 145 244 96.0
e 145 127 12.0
e 145 110 41.0
e 145 98 26.0
e 145 18 50.0
e 145 121 26.0
e 145 288 9.0
e 145 60 33.0
e 145 17 24.0
e 145 169 32.0
e 145 73 68.0
e 145 146 21.0
e 146 288 4.0
e 147 82 7.0
e 147 224 1.0
e 149 54 15.0
e 151 92 2.0
e 151 216 1.0
e 153 76 3.0
e 155 146 1.0
e 158 131 1.0
e 160 225 4.0
e 161 314 2.0
e 163 257 8.0
e 163 308 9.0
e 164 102 37.0
e 164 131 12.0
e 164 68 22.0
e 164 289 32.0
e 164 183 50.0
e 164 286 93.0
e 164 172 72.0
e 164 118 27.0
e 164 38 76.0
e 164 287 50.0
e 164 107 57.0
e 164 195 61.0
e 164 228 49.0
e 164 75 2.0
e 164 62 81.0
e 164 167 55.0
e 169 50 17.0
e 169 217 60.0
e 169 315 91.0
e 169 172 41.0
e 169 9 36.0
e 169 286 8.0
e 169 159 8.0
e 169 214 10.0
e 169 179 84.0
e 169 115 30.0
e 169 250 46.0
e 169 14 30.0
e 169 240 59.0
e 169 289 49.0
e 173 253 12.0
e 173 82 73.0
e 173 1 8.0
e 173 149 96.0
e 173 266 17.0
e 173 150 26.0
e 173 219 100.0
e 173 230 7.0
e 173 167 32.0
e 173 184 14.0
e 173 59 87.0
e 173 151 75.0
e 173 84 88.0
e 173 169 43.0
e 173 315 31.0
e 173 125 20.0
e 174 148 48.0
e 174 217 80.0
e 174 205 45.0
e 174 50 19.0
e 174 143 53.0
e 174 303 25.0
e 174 6 50.0
e 174 191 17.0
e 174 159 61.0
e 174 114 45.0
e 174 286 85.0
e 174 124 6.0
e 174 156 1.0
e 174 123 80.0
e 174 76 2.0
e 174 316 59.0
e 176 163 17.0
e 176 234 13.0
e 176 97 2.0
e 176 40 14.0
e 177 175 1.0
e 178 137 2.0
e 179 11 1.0
e 180 132 18.0
e 180 207 8.0
e 180 117 5.0
e 181 34 1.0
e 182 8 6.0
e 182 3 2.0
e 185 269 6.0
e 186 194 1.0
e 187 232 4.0
e 188 0 1.0
e 190 45 1.0
e 190 133 1.0
e 195 28 79.0
e 195 138 54.0
e 195 83 89.0
e 195 272 61.0
e 195 183 9.0
e 195 303 23.0
e 195 172 51.0
e 195 298 7.0
e 195 261 65.0
e 195 54 18.0
e 195 233 27.0
e 195 139 45.0
e 195 85 77.0
e 195 228 76.0
e 196 37 3.0
e 197 77 2.0
e 198 280 3.0
e 199 70 7.0
e 199 118 2.0
e 199 228 1.0
e 204 149 6.0
e 204 287 12.0
e 206 205 4.0
e 206 97 8.0
e 208 77 1.0
e 209 127 36.0
e 210 49 9.0
e 210 229 7.0
e 212 31 1.0
e 213 240 1.0
e 219 47 2.0
e 225 211 3.0
e 232 293 16.0
e 232 280 15.0
e 232 24 17.0
e 232 305 20.0
e 235 204 11.0
e 237 301 2.0
e 238 106 6.0
e 238 122 8.0
e 239 138 75.0
e 239 70 51.0
e 239 174 67.0
e 239 277 54.0
e 239 257 31.0
e 239 230 54.0
e 239 78 65.0
e 239 232 90.0
e 239 256 97.0
e 239 237 59.0
e 239 190 10.0
e 239 104 31.0
e 239 182 66.0
e 239 296 12.0
e 239 50 35.0
e 239 110 24.0
e 241 227 2.0
e 241 198 1.0
e 242 297 1.0
e 243 36 16.0
e 243 27 19.0
e 243 262 1.0
e 243 34 6.0
e 249 225 1.0
e 249 98 4.0
e 251 78 2.0
e 252 293 1.0
e 252 56 1.0
e 259 276 11.0
e 259 302 7.0
e 259 83 1.0
e 265 247 2.0
e 265 299 50.0
e 265 121 96.0
e 265 20 11.0
e 265 122 60.0
e 265 164 54.0
e 265 295 13.0
e 265 79 80.0
e 265 218 13.0
e 265 260 36.0
e 265 293 37.0
e 265 207 39.0
e 265 81 45.0
e 265 89 56.0
e 265 176 64.0
e 266 114 16.0
e 266 267 15.0
e 266 98 19.0
e 266 293 19.0
e 269 5 11.0
e 270 24 5.0
e 270 294 9.0
e 270 25 9.0
e 271 133 1.0
e 273 56 2.0
e 275 219 7.0
e 278 101 11.0
e 278 261 10.0
e 281 178 4.0
e 281 105 12.0
e 283 153 1.0
e 283 54 19.0
e 284 6 1.0
e 290 316 2.0
e 291 211 1.0
e 299 18 8.0
e 300 217 1.0
e 302 41 39.0
e 308 118 4.0
e 309 184 47.0
e 309 121 12.0
e 309 80 57.0
e 309 110 8.0
e 309 204 26.0
e 309 242 93.0
e 309 169 22.0
e 309 19 25.0
e 309 244 60.0
e 309 139 98.0
e 309 46 42.0
e 309 317 34.0
e 309 305 29.0
e 309 277 70.0
e 309 160 39.0
e 310 38 64.0
e 310 100 19.0
e 310 250 10.0
e 310 279 21.0
e 310 70 12.0
e 312 14 90.0
e 312 51 9.0
e 312 222 75.0
e 312 281 25.0
e 312 291 48.0
e 312 107 92.0
e 312 34 31.0
e 312 113 64.0
e 312 100 59.0
e 312 147 95.0
e 312 278 91.0
e 312 157 39.0
e 312 133 39.0
e 312 19 57.0
e 312 218 44.0
e 312 211 71.0
e 312 294 38.0
e 313 295 5.0
e 313 51 1.0
e 317 163 14.0
e 317 80 8.0
e 317 175 16.0
e 319 41 42.0
